p cnf 30 115
1 2 3 0 
-1 -2 0 
-1 -3 0 
-2 -3 0 
4 5 6 0 
-4 -5 0 
-4 -6 0 
-5 -6 0 
7 8 9 0 
-7 -8 0 
-7 -9 0 
-8 -9 0 
10 11 12 0 
-10 -11 0 
-10 -12 0 
-11 -12 0 
13 14 15 0 
-13 -14 0 
-13 -15 0 
-14 -15 0 
16 17 18 0 
-16 -17 0 
-16 -18 0 
-17 -18 0 
19 20 21 0 
-19 -20 0 
-19 -21 0 
-20 -21 0 
22 23 24 0 
-22 -23 0 
-22 -24 0 
-23 -24 0 
25 26 27 0 
-25 -26 0 
-25 -27 0 
-26 -27 0 
28 29 30 0 
-28 -29 0 
-28 -30 0 
-29 -30 0 
-1 -28 0
-2 -29 0
-3 -30 0
-1 -25 0
-2 -26 0
-3 -27 0
-1 -19 0
-2 -20 0
-3 -21 0
-1 -10 0
-2 -11 0
-3 -12 0
-4 -25 0
-5 -26 0
-6 -27 0
-4 -19 0
-5 -20 0
-6 -21 0
-4 -13 0
-5 -14 0
-6 -15 0
-4 -7 0
-5 -8 0
-6 -9 0
-7 -28 0
-8 -29 0
-9 -30 0
-7 -19 0
-8 -20 0
-9 -21 0
-7 -16 0
-8 -17 0
-9 -18 0
-7 -13 0
-8 -14 0
-9 -15 0
-7 -4 0
-8 -5 0
-9 -6 0
-10 -19 0
-11 -20 0
-12 -21 0
-10 -16 0
-11 -17 0
-12 -18 0
-10 -1 0
-11 -2 0
-12 -3 0
-13 -28 0
-14 -29 0
-15 -30 0
-13 -25 0
-14 -26 0
-15 -27 0
-13 -16 0
-14 -17 0
-15 -18 0
-13 -7 0
-14 -8 0
-15 -9 0
-13 -4 0
-14 -5 0
-15 -6 0
-16 -28 0
-17 -29 0
-18 -30 0
-16 -22 0
-17 -23 0
-18 -24 0
-16 -19 0
-17 -20 0
-18 -21 0
-16 -13 0
-17 -14 0
-18 -15 0
-16 -10 0
-17 -11 0
-18 -12 0
-16 -7 0
-17 -8 0
-18 -9 0
-19 -28 0
-20 -29 0
-21 -30 0
-19 -25 0
-20 -26 0
-21 -27 0
-19 -22 0
-20 -23 0
-21 -24 0
-19 -16 0
-20 -17 0
-21 -18 0
-19 -10 0
-20 -11 0
-21 -12 0
-19 -7 0
-20 -8 0
-21 -9 0
-19 -4 0
-20 -5 0
-21 -6 0
-19 -1 0
-20 -2 0
-21 -3 0
-22 -25 0
-23 -26 0
-24 -27 0
-22 -19 0
-23 -20 0
-24 -21 0
-22 -16 0
-23 -17 0
-24 -18 0
-25 -28 0
-26 -29 0
-27 -30 0
-25 -22 0
-26 -23 0
-27 -24 0
-25 -19 0
-26 -20 0
-27 -21 0
-25 -13 0
-26 -14 0
-27 -15 0
-25 -4 0
-26 -5 0
-27 -6 0
-25 -1 0
-26 -2 0
-27 -3 0
-28 -25 0
-29 -26 0
-30 -27 0
-28 -19 0
-29 -20 0
-30 -21 0
-28 -16 0
-29 -17 0
-30 -18 0
-28 -13 0
-29 -14 0
-30 -15 0
-28 -7 0
-29 -8 0
-30 -9 0
-28 -1 0
-29 -2 0
-30 -3 0
